MARKOV
836
 2 2 2 2 2 2 2 2 2 2 2 2 2 2 2 2 2 2 2 2 2 2 2 2 2 2 2 2 2 2 2 2 2 2 2 2 2 2 2 2 2 2 2 2 2 2 2 2 2 2 2 2 2 2 2 2 2 2 2 2 2 2 2 2 2 2 2 2 2 2 2 2 2 2 2 2 2 2 2 2 2 2 2 2 2 2 2 2 2 2 2 2 2 2 2 2 2 2 2 2 2 2 2 2 2 2 2 2 2 2 2 2 2 2 2 2 2 2 2 2 2 2 2 2 2 2 2 2 2 2 2 2 2 2 2 2 2 2 2 2 2 2 2 2 2 2 2 2 2 2 2 2 2 2 2 2 2 2 2 2 2 2 2 2 2 2 2 2 2 2 2 2 2 2 2 2 2 2 2 2 2 2 2 2 2 2 2 2 2 2 2 2 2 2 2 2 2 2 2 2 2 2 2 2 2 2 2 2 2 2 2 2 2 2 2 2 2 2 2 2 2 2 2 2 2 2 2 2 2 2 2 2 2 2 2 2 2 2 2 2 2 2 2 2 2 2 2 2 2 2 2 2 2 2 2 2 2 2 2 2 2 2 2 2 2 2 2 2 2 2 2 2 2 2 2 2 2 2 2 2 2 2 2 2 2 2 2 2 2 2 2 2 2 2 2 2 2 2 2 2 2 2 2 2 2 2 2 2 2 2 2 2 2 2 2 2 2 2 2 2 2 2 2 2 2 2 2 2 2 2 2 2 2 2 2 2 2 2 2 2 2 2 2 2 2 2 2 2 2 2 2 2 2 2 2 2 2 2 2 2 2 2 2 2 2 2 2 2 2 2 2 2 2 2 2 2 2 2 2 2 2 2 2 2 2 2 2 2 2 2 2 2 2 2 2 2 2 2 2 2 2 2 2 2 2 2 2 2 2 2 2 2 2 2 2 2 2 2 2 2 2 2 2 2 2 2 2 2 2 2 2 2 2 2 2 2 2 2 2 2 2 2 2 2 2 2 2 2 2 2 2 2 2 2 2 2 2 2 2 2 2 2 2 2 2 2 2 2 2 2 2 2 2 2 2 2 2 2 2 2 2 2 2 2 2 2 2 2 2 2 2 2 2 2 2 2 2 2 2 2 2 2 2 2 2 2 2 2 2 2 2 2 2 2 2 2 2 2 2 2 2 2 2 2 2 2 2 2 2 2 2 2 2 2 2 2 2 2 2 2 2 2 2 2 2 2 2 2 2 2 2 2 2 2 2 2 2 2 2 2 2 2 2 2 2 2 2 2 2 2 2 2 2 2 2 2 2 2 2 2 2 2 2 2 2 2 2 2 2 2 2 2 2 2 2 2 2 2 2 2 2 2 2 2 2 2 2 2 2 2 2 2 2 2 2 2 2 2 2 2 2 2 2 2 2 2 2 2 2 2 2 2 2 2 2 2 2 2 2 2 2 2 2 2 2 2 2 2 2 2 2 2 2 2 2 2 2 2 2 2 2 2 2 2 2 2 2 2 2 2 2 2 2 2 2 2 2 2 2 2 2 2 2 2 2 2 2 2 2 2 2 2 2 2 2 2 2 2 2 2 2 2 2 2 2 2 2 2 2 2 2 2 2 2 2 2 2 2 2 2 2 2 2 2 2 2 2 2 2 2 2 2 2 2 2 2 2 2 2 2 2 2 2 2 2 2 2 2 2 2 2 2 2 2 2 2 2 2 2 2 2 2 2 2 2 2 2 2 2 2 2 2 2 2 2 2 2 2 2 2 2 2 2 2 2 2 2 2 2 2 2 2 2 2 2 2 2 2 2 2 2 2 2 2 2 2 2 2 2 2 2 2 2 2 2 2 2 2 2 2 2 2 2 2 2 2 2 2 2 2 2 2 2 2 2 2
842
3	258 268 835 
3	163 834 835 
3	38 833 834 
3	241 832 833 
3	76 831 832 
3	59 830 831 
3	244 829 830 
3	353 828 829 
3	304 827 828 
3	161 826 827 
3	341 825 826 
3	8 824 825 
3	218 823 824 
3	108 822 823 
3	143 821 822 
3	55 820 821 
3	89 819 820 
3	167 818 819 
3	340 817 818 
3	328 816 817 
3	283 815 816 
3	152 814 815 
3	348 813 814 
3	56 812 813 
3	261 811 812 
3	314 810 811 
3	182 809 810 
3	9 808 809 
3	286 807 808 
3	68 806 807 
3	154 805 806 
3	32 804 805 
3	44 803 804 
3	25 802 803 
3	111 801 802 
3	301 800 801 
3	30 799 800 
3	344 798 799 
3	100 797 798 
3	274 796 797 
3	206 795 796 
3	93 794 795 
3	22 793 794 
3	138 792 793 
3	302 791 792 
3	162 790 791 
3	87 789 790 
3	141 788 789 
3	187 787 788 
3	354 786 787 
3	18 785 786 
3	142 784 785 
3	292 783 784 
3	308 782 783 
3	352 781 782 
3	98 780 781 
3	287 779 780 
3	347 778 779 
3	145 777 778 
3	255 776 777 
3	37 775 776 
3	330 774 775 
3	250 773 774 
3	284 772 773 
3	315 771 772 
3	310 770 771 
3	107 769 770 
3	109 768 769 
3	327 767 768 
3	26 766 767 
3	140 765 766 
3	279 764 765 
3	350 763 764 
3	54 762 763 
3	293 761 762 
3	277 760 761 
3	217 759 760 
3	300 758 759 
3	298 757 758 
3	256 756 757 
3	101 755 756 
3	249 754 755 
3	51 753 754 
3	185 752 753 
3	195 751 752 
3	28 750 751 
3	69 749 750 
3	225 748 749 
3	356 747 748 
3	262 746 747 
3	147 745 746 
3	7 744 745 
3	179 743 744 
3	210 742 743 
3	34 741 742 
3	130 740 741 
3	326 739 740 
3	212 738 739 
3	232 737 738 
3	144 736 737 
3	313 735 736 
3	228 734 735 
3	263 733 734 
3	325 732 733 
3	10 731 732 
3	168 730 731 
3	57 729 730 
3	126 728 729 
3	78 727 728 
3	234 726 727 
3	110 725 726 
3	221 724 725 
3	336 723 724 
3	276 722 723 
3	29 721 722 
3	118 720 721 
3	115 719 720 
3	153 718 719 
3	72 717 718 
3	129 716 717 
3	257 715 716 
3	60 714 715 
3	42 713 714 
3	166 712 713 
3	323 711 712 
3	282 710 711 
3	173 709 710 
3	170 708 709 
3	270 707 708 
3	306 706 707 
3	5 705 706 
3	205 704 705 
3	46 703 704 
3	253 702 703 
3	343 701 702 
3	200 700 701 
3	345 699 700 
3	41 698 699 
3	271 697 698 
3	183 696 697 
3	285 695 696 
3	169 694 695 
3	155 693 694 
3	197 692 693 
3	231 691 692 
3	213 690 691 
3	230 689 690 
3	266 688 689 
3	53 687 688 
3	128 686 687 
3	133 685 686 
3	226 684 685 
3	82 683 684 
3	188 682 683 
3	252 681 682 
3	71 680 681 
3	186 679 680 
3	121 678 679 
3	349 677 678 
3	99 676 677 
3	267 675 676 
3	181 674 675 
3	150 673 674 
3	204 672 673 
3	296 671 672 
3	2 670 671 
3	355 669 670 
3	227 668 669 
3	14 667 668 
3	50 666 667 
3	6 665 666 
3	33 664 665 
3	193 663 664 
3	265 662 663 
3	151 661 662 
3	40 660 661 
3	97 659 660 
3	114 658 659 
3	273 657 658 
3	63 656 657 
3	127 655 656 
3	233 654 655 
3	12 653 654 
3	135 652 653 
3	24 651 652 
3	254 650 651 
3	346 649 650 
3	113 648 649 
3	278 647 648 
3	160 646 647 
3	338 645 646 
3	339 644 645 
3	84 643 644 
3	201 642 643 
3	322 641 642 
3	3 640 641 
3	122 639 640 
3	329 638 639 
3	27 637 638 
3	351 636 637 
3	337 635 636 
3	45 634 635 
3	4 633 634 
3	91 632 633 
3	67 631 632 
3	171 630 631 
3	281 629 630 
3	124 628 629 
3	62 627 628 
3	216 626 627 
3	104 625 626 
3	223 624 625 
3	202 623 624 
3	311 622 623 
3	1 621 622 
3	207 620 621 
3	247 619 620 
3	88 618 619 
3	237 617 618 
3	332 616 617 
3	48 615 616 
3	342 614 615 
3	64 613 614 
3	148 612 613 
3	35 611 612 
3	318 610 611 
3	333 609 610 
1	609 
3	131 235 608 
3	288 607 608 
1	607 
3	144 174 606 
3	268 605 606 
3	0 604 605 
3	228 603 604 
3	199 602 603 
3	61 601 602 
3	255 600 601 
3	234 599 600 
3	157 598 599 
3	146 597 598 
3	137 596 597 
3	16 595 596 
3	353 594 595 
3	324 593 594 
3	240 592 593 
3	43 591 592 
3	198 590 591 
3	303 589 590 
3	107 588 589 
3	331 587 588 
3	239 586 587 
3	72 585 586 
3	208 584 585 
3	335 583 584 
3	15 582 583 
3	102 581 582 
3	125 580 581 
3	224 579 580 
3	83 578 579 
3	220 577 578 
3	215 576 577 
3	299 575 576 
3	238 574 575 
3	320 573 574 
3	195 572 573 
3	23 571 572 
3	290 570 571 
3	242 569 570 
3	319 568 569 
3	189 567 568 
3	184 566 567 
3	294 565 566 
3	134 564 565 
3	269 563 564 
3	260 562 563 
3	262 561 562 
3	20 560 561 
3	17 559 560 
3	13 558 559 
3	70 557 558 
3	119 556 557 
3	301 555 556 
3	226 554 555 
3	191 553 554 
3	203 552 553 
3	165 551 552 
3	307 550 551 
3	158 549 550 
3	211 548 549 
3	222 547 548 
3	275 546 547 
3	192 545 546 
1	545 
3	107 195 544 
3	72 543 544 
3	301 542 543 
3	255 541 542 
3	353 540 541 
3	262 539 540 
1	539 
3	258 268 538 
3	94 537 538 
3	120 536 537 
3	309 535 536 
3	157 534 535 
3	59 533 534 
3	65 532 533 
3	353 531 532 
3	123 530 531 
3	331 529 530 
3	229 528 529 
3	194 527 528 
3	149 526 527 
3	52 525 526 
3	178 524 525 
3	167 523 524 
3	39 522 523 
3	259 521 522 
3	299 520 521 
3	320 519 520 
3	290 518 519 
3	242 517 518 
3	189 516 517 
3	319 515 516 
3	305 514 515 
3	105 513 514 
3	314 512 513 
3	294 511 512 
3	131 510 511 
3	154 509 510 
3	136 508 509 
3	301 507 508 
3	119 506 507 
3	74 505 506 
3	22 504 505 
3	141 503 504 
3	187 502 503 
3	295 501 502 
3	142 500 501 
3	308 499 500 
3	245 498 499 
3	58 497 498 
3	98 496 497 
3	255 495 496 
3	145 494 495 
3	347 493 494 
3	116 492 493 
3	103 491 492 
3	146 490 491 
3	66 489 490 
3	324 488 489 
3	196 487 488 
3	315 486 487 
3	107 485 486 
3	109 484 485 
3	208 483 484 
3	102 482 483 
3	19 481 482 
3	180 480 481 
3	85 479 480 
3	83 478 479 
3	334 477 478 
3	289 476 477 
3	277 475 476 
3	236 474 475 
3	31 473 474 
3	80 472 473 
3	11 471 472 
3	238 470 471 
3	77 469 470 
3	185 468 469 
3	195 467 468 
3	96 466 467 
3	243 465 466 
3	28 464 465 
3	132 463 464 
3	164 462 463 
3	280 461 462 
3	317 460 461 
3	260 459 460 
3	262 458 459 
3	117 457 458 
3	17 456 457 
3	214 455 456 
3	90 454 455 
3	79 453 454 
3	210 452 453 
3	165 451 452 
3	158 450 451 
3	326 449 450 
3	139 448 449 
3	275 447 448 
3	232 446 447 
3	174 445 446 
3	177 444 445 
3	144 443 444 
3	75 442 443 
3	0 441 442 
3	228 440 441 
3	325 439 440 
3	61 438 439 
3	86 437 438 
3	57 436 437 
3	234 435 436 
3	321 434 435 
3	16 433 434 
3	272 432 433 
3	336 431 432 
3	43 430 431 
3	303 429 430 
3	72 428 429 
3	15 427 428 
3	335 426 427 
3	209 425 426 
3	125 424 425 
3	257 423 424 
3	92 422 423 
3	170 421 422 
3	306 420 421 
3	253 419 420 
3	312 418 419 
3	23 417 418 
3	95 416 417 
3	159 415 416 
3	246 414 415 
3	345 413 414 
3	219 412 413 
3	49 411 412 
3	175 410 411 
3	285 409 410 
3	134 408 409 
3	197 407 408 
3	251 406 407 
3	230 405 406 
3	226 404 405 
3	191 403 404 
3	188 402 403 
3	203 401 402 
3	172 400 401 
3	106 399 400 
3	248 398 399 
3	307 397 398 
3	267 396 397 
3	156 395 396 
3	291 394 395 
3	297 393 394 
3	176 392 393 
3	199 391 392 
3	355 390 391 
3	264 389 390 
3	6 388 389 
3	33 387 388 
3	47 386 387 
3	40 385 386 
3	137 384 385 
3	240 383 384 
3	198 382 383 
3	316 381 382 
3	239 380 381 
3	24 379 380 
3	224 378 379 
3	346 377 378 
3	278 376 377 
3	220 375 376 
3	215 374 375 
3	190 373 374 
3	351 372 373 
3	184 371 372 
3	112 370 371 
3	73 369 370 
3	67 368 369 
3	62 367 368 
3	269 366 367 
3	21 365 366 
3	20 364 365 
3	13 363 364 
3	70 362 363 
3	36 361 362 
3	211 360 361 
3	222 359 360 
3	81 358 359 
3	192 357 358 
1	357 
1	258 
1	268 
1	94 
1	120 
1	38 
1	163 
1	241 
1	76 
1	309 
1	157 
1	59 
1	65 
1	244 
1	353 
1	304 
1	161 
1	341 
1	123 
1	331 
1	8 
1	194 
1	229 
1	108 
1	218 
1	143 
1	149 
1	55 
1	52 
1	89 
1	178 
1	167 
1	340 
1	39 
1	299 
1	259 
1	328 
1	320 
1	283 
1	290 
1	242 
1	319 
1	189 
1	235 
1	305 
1	152 
1	105 
1	348 
1	56 
1	261 
1	314 
1	294 
1	131 
1	182 
1	9 
1	286 
1	68 
1	154 
1	32 
1	44 
1	136 
1	25 
1	111 
1	119 
1	301 
1	30 
1	344 
1	100 
1	274 
1	74 
1	93 
1	206 
1	22 
1	138 
1	302 
1	87 
1	162 
1	141 
1	187 
1	295 
1	354 
1	18 
1	142 
1	292 
1	308 
1	58 
1	245 
1	98 
1	352 
1	287 
1	255 
1	145 
1	347 
1	116 
1	37 
1	103 
1	146 
1	250 
1	330 
1	66 
1	284 
1	324 
1	196 
1	315 
1	310 
1	327 
1	109 
1	107 
1	26 
1	140 
1	208 
1	102 
1	19 
1	180 
1	279 
1	83 
1	85 
1	334 
1	350 
1	289 
1	54 
1	293 
1	277 
1	300 
1	217 
1	298 
1	236 
1	101 
1	256 
1	31 
1	11 
1	80 
1	238 
1	249 
1	77 
1	51 
1	195 
1	185 
1	96 
1	243 
1	132 
1	28 
1	225 
1	69 
1	280 
1	164 
1	356 
1	317 
1	117 
1	260 
1	262 
1	17 
1	90 
1	214 
1	147 
1	7 
1	179 
1	79 
1	210 
1	34 
1	165 
1	158 
1	130 
1	326 
1	212 
1	139 
1	275 
1	232 
1	174 
1	177 
1	144 
1	313 
1	0 
1	75 
1	228 
1	263 
1	325 
1	61 
1	10 
1	168 
1	86 
1	57 
1	126 
1	78 
1	321 
1	234 
1	110 
1	16 
1	221 
1	272 
1	336 
1	276 
1	29 
1	43 
1	118 
1	303 
1	115 
1	153 
1	72 
1	335 
1	15 
1	209 
1	129 
1	125 
1	257 
1	60 
1	42 
1	166 
1	323 
1	282 
1	92 
1	173 
1	170 
1	270 
1	306 
1	5 
1	205 
1	46 
1	253 
1	312 
1	23 
1	95 
1	343 
1	246 
1	159 
1	288 
1	200 
1	345 
1	219 
1	41 
1	271 
1	175 
1	49 
1	183 
1	285 
1	169 
1	134 
1	155 
1	197 
1	251 
1	231 
1	213 
1	230 
1	266 
1	53 
1	128 
1	133 
1	226 
1	82 
1	191 
1	188 
1	252 
1	106 
1	172 
1	203 
1	248 
1	71 
1	307 
1	186 
1	121 
1	349 
1	99 
1	267 
1	181 
1	156 
1	150 
1	204 
1	297 
1	291 
1	176 
1	296 
1	199 
1	2 
1	355 
1	264 
1	227 
1	14 
1	50 
1	6 
1	33 
1	47 
1	193 
1	265 
1	151 
1	40 
1	137 
1	97 
1	114 
1	273 
1	240 
1	198 
1	63 
1	316 
1	127 
1	239 
1	233 
1	135 
1	12 
1	24 
1	254 
1	224 
1	346 
1	113 
1	278 
1	338 
1	160 
1	220 
1	215 
1	339 
1	190 
1	84 
1	322 
1	201 
1	122 
1	3 
1	329 
1	27 
1	351 
1	337 
1	45 
1	184 
1	112 
1	91 
1	4 
1	73 
1	67 
1	171 
1	281 
1	124 
1	62 
1	104 
1	216 
1	269 
1	223 
1	21 
1	311 
1	202 
1	20 
1	13 
1	1 
1	70 
1	207 
1	247 
1	88 
1	237 
1	48 
1	332 
1	342 
1	36 
1	211 
1	64 
1	222 
1	148 
1	318 
1	35 
1	81 
1	192 
1	333 
0	

8
 1 0 0.89 0.11 0.5 0.5 0.445 0.555
8
 1 0 0 1 0.9 0 0.1 1
8
 1 0 0 1 0.9 0 0.1 1
8
 1 0 0 1 0.9 0 0.1 1
8
 1 0 0 1 0.9 0 0.1 1
8
 1 0 0 1 0.9 0 0.1 1
8
 1 0 0 1 0.5 0 0.5 1
8
 1 0 0 1 0.5 0 0.5 1
8
 1 0 0 1 0.8 0 0.2 1
8
 1 0 0 1 0.9 0 0.1 1
8
 1 0 0 1 0.2 0 0.8 1
8
 1 0 0 1 0.3 0 0.7 1
8
 1 0 0 1 0.9 0 0.1 1
8
 1 0 0 1 0.8 0 0.2 1
8
 1 0 0 1 0.8 0 0.2 1
8
 1 0 0 1 0.5 0 0.5 1
8
 1 0 0 1 0.9 0 0.1 1
8
 1 0 0 1 0.5 0 0.5 1
8
 1 0 0 1 0.5 0 0.5 1
8
 1 0 0 1 0.9 0 0.1 1
8
 1 0 0 1 0.9 0 0.1 1
8
 1 0 0 1 0.5 0 0.5 1
8
 1 0 0 1 0.9 0 0.1 1
8
 1 0 0 1 0.9 0 0.1 1
8
 1 0 0 1 0.4 0 0.6 1
8
 1 0 0 1 0.9 0 0.1 1
8
 1 0 0 1 0.5 0 0.5 1
8
 1 0 0 1 0.5 0 0.5 1
8
 1 0 0 1 0.5 0 0.5 1
8
 1 0 0 1 0.5 0 0.5 1
8
 1 0 0 1 0.5 0 0.5 1
8
 1 0 0 1 0.9 0 0.1 1
8
 1 0 0 1 0.9 0 0.1 1
8
 1 0 0 1 0.9 0 0.1 1
8
 1 0 0 1 0.8 0 0.2 1
8
 1 0 0 1 0.5 0 0.5 1
8
 1 0 0 1 0.5 0 0.5 1
8
 1 0 0 1 0.5 0 0.5 1
8
 1 0 0 1 0.9 0 0.1 1
8
 1 0 0 1 0.9 0 0.1 1
8
 1 0 0 1 0.9 0 0.1 1
8
 1 0 0 1 0.3 0 0.7 1
8
 1 0 0 1 0.5 0 0.5 1
8
 1 0 0 1 0.9 0 0.1 1
8
 1 0 0 1 0.5 0 0.5 1
8
 1 0 0 1 0.9 0 0.1 1
8
 1 0 0 1 0.9 0 0.1 1
8
 1 0 0 1 0.8 0 0.2 1
8
 1 0 0 1 0.5 0 0.5 1
8
 1 0 0 1 0.9 0 0.1 1
8
 1 0 0 1 0.5 0 0.5 1
8
 1 0 0 1 0.8 0 0.2 1
8
 1 0 0 1 0.5 0 0.5 1
8
 1 0 0 1 0.5 0 0.5 1
8
 1 0 0 1 0.7 0 0.3 1
8
 1 0 0 1 0.5 0 0.5 1
8
 1 0 0 1 0.9 0 0.1 1
8
 1 0 0 1 0.5 0 0.5 1
8
 1 0 0 1 0.8 0 0.2 1
8
 1 0 0 1 0.5 0 0.5 1
8
 1 0 0 1 0.5 0 0.5 1
8
 1 0 0 1 0.9 0 0.1 1
8
 1 0 0 1 0.5 0 0.5 1
8
 1 0 0 1 0.9 0 0.1 1
8
 1 0 0 1 0.8 0 0.2 1
8
 1 0 0 1 0.4 0 0.6 1
8
 1 0 0 1 0.5 0 0.5 1
8
 1 0 0 1 0.54 0 0.46 1
8
 1 0 0 1 0.5 0 0.5 1
8
 1 0 0 1 0.9 0 0.1 1
8
 1 0 0 1 0.9 0 0.1 1
8
 1 0 0 1 0.9 0 0.1 1
8
 1 0 0 1 0.9 0 0.1 1
8
 1 0 0 1 0.5 0 0.5 1
8
 1 0 0 1 0.9 0 0.1 1
8
 1 0 0 1 0.5 0 0.5 1
8
 1 0 0 1 0.4 0 0.6 1
8
 1 0 0 1 0.5 0 0.5 1
8
 1 0 0 1 0.5 0 0.5 1
8
 1 0 0 1 0.1 0 0.9 1
8
 1 0 0 1 0.9 0 0.1 1
8
 1 0 0 1 0.9 0 0.1 1
8
 1 0 0 1 0.9 0 0.1 1
8
 1 0 0 1 0.9 0 0.1 1
8
 1 0 0 1 0 0 1 1
8
 1 0 0 1 0.5 0 0.5 1
8
 1 0 0 1 0.9 0 0.1 1
8
 1 0 0 1 0.9 0 0.1 1
8
 1 0 0 1 0.9 0 0.1 1
8
 1 0 0 1 0 0 1 1
8
 1 0 0 1 0.5 0 0.5 1
8
 1 0 0 1 0.9 0 0.1 1
8
 1 0 0 1 0.5 0 0.5 1
8
 1 0 0 1 0.5 0 0.5 1
8
 1 0 0 1 0.9 0 0.1 1
8
 1 0 0 1 0.9 0 0.1 1
8
 1 0 0 1 0.5 0 0.5 1
8
 1 0 0 1 0.9 0 0.1 1
8
 1 0 0 1 0.6 0 0.4 1
8
 1 0 0 1 0.2 0 0.8 1
8
 1 0 0 1 0.5 0 0.5 1
8
 1 0 0 1 0.5 0 0.5 1
8
 1 0 0 1 0.9 0 0.1 1
8
 1 0 0 1 0.9 0 0.1 1
8
 1 0 0 1 0.9 0 0.1 1
8
 1 0 0 1 0.9 0 0.1 1
8
 1 0 0 1 0.5 0 0.5 1
8
 1 0 0 1 0.9 0 0.1 1
8
 1 0 0 1 0.9 0 0.1 1
8
 1 0 0 1 0.5 0 0.5 1
8
 1 0 0 1 0.5 0 0.5 1
8
 1 0 0 1 0.9 0 0.1 1
8
 1 0 0 1 0.5 0 0.5 1
8
 1 0 0 1 0.9 0 0.1 1
8
 1 0 0 1 0.7 0 0.3 1
8
 1 0 0 1 0.5 0 0.5 1
8
 1 0 0 1 0.9 0 0.1 1
8
 1 0 0 1 0.3 0 0.7 1
8
 1 0 0 1 0 0 1 1
8
 1 0 0 1 0.3 0 0.7 1
8
 1 0 0 1 0.5 0 0.5 1
8
 1 0 0 1 0.9 0 0.1 1
8
 1 0 0 1 0.9 0 0.1 1
8
 1 0 0 1 0.9 0 0.1 1
8
 1 0 0 1 0.9 0 0.1 1
8
 1 0 0 1 0.9 0 0.1 1
8
 1 0 0 1 0.9 0 0.1 1
8
 1 0 0 1 0.5 0 0.5 1
8
 1 0 0 1 0.9 0 0.1 1
8
 1 0 0 1 0.5 0 0.5 1
8
 1 0 0 1 0.5 0 0.5 1
8
 1 0 0 1 0.9 0 0.1 1
8
 1 0 0 1 0.8 0 0.2 1
8
 1 0 0 1 0.5 0 0.5 1
8
 1 0 0 1 0.5 0 0.5 1
8
 1 0 0 1 0.98 0 0.02 1
8
 1 0 0 1 0.9 0 0.1 1
8
 1 0 0 1 0.7 0 0.3 1
8
 1 0 0 1 0.5 0 0.5 1
8
 1 0 0 1 0.5 0 0.5 1
8
 1 0 0 1 0.9 0 0.1 1
8
 1 0 0 1 0.9 0 0.1 1
8
 1 0 0 1 0.5 0 0.5 1
8
 1 0 0 1 0.5 0 0.5 1
8
 1 0 0 1 0.9 0 0.1 1
8
 1 0 0 1 0.9 0 0.1 1
8
 1 0 0 1 0.5 0 0.5 1
8
 1 0 0 1 0.5 0 0.5 1
8
 1 0 0 1 0.5 0 0.5 1
8
 1 0 0 1 0.9 0 0.1 1
8
 1 0 0 1 0.5 0 0.5 1
8
 1 0 0 1 0.6 0 0.4 1
8
 1 0 0 1 0.9 0 0.1 1
8
 1 0 0 1 0.4 0 0.6 1
8
 1 0 0 1 0.3 0 0.7 1
8
 1 0 0 1 0.9 0 0.1 1
8
 1 0 0 1 0.5 0 0.5 1
8
 1 0 0 1 0.9 0 0.1 1
8
 1 0 0 1 0.5 0 0.5 1
8
 1 0 0 1 0.9 0 0.1 1
8
 1 0 0 1 0.9 0 0.1 1
8
 1 0 0 1 0.5 0 0.5 1
8
 1 0 0 1 0.5 0 0.5 1
8
 1 0 0 1 0.9 0 0.1 1
8
 1 0 0 1 0.9 0 0.1 1
8
 1 0 0 1 0.9 0 0.1 1
8
 1 0 0 1 0.6 0 0.4 1
8
 1 0 0 1 0.3 0 0.7 1
8
 1 0 0 1 0.9 0 0.1 1
8
 1 0 0 1 0.5 0 0.5 1
8
 1 0 0 1 0.5 0 0.5 1
8
 1 0 0 1 0.9 0 0.1 1
8
 1 0 0 1 0.9 0 0.1 1
8
 1 0 0 1 0.8 0 0.2 1
8
 1 0 0 1 0.9 0 0.1 1
8
 1 0 0 1 0.5 0 0.5 1
8
 1 0 0 1 0.9 0 0.1 1
8
 1 0 0 1 0.9 0 0.1 1
8
 1 0 0 1 0.9 0 0.1 1
8
 1 0 0 1 0.9 0 0.1 1
8
 1 0 0 1 0.5 0 0.5 1
8
 1 0 0 1 0.8 0 0.2 1
8
 1 0 0 1 0.9 0 0.1 1
8
 1 0 0 1 0.5 0 0.5 1
8
 1 0 0 1 0.5 0 0.5 1
8
 1 0 0 1 0.9 0 0.1 1
8
 1 0 0 1 0.6 0 0.4 1
8
 1 0 0 1 0.9 0 0.1 1
8
 1 0 0 1 0.5 0 0.5 1
8
 1 0 0 1 0.4 0 0.6 1
8
 1 0 0 1 0.5 0 0.5 1
8
 1 0 0 1 0.5 0 0.5 1
8
 1 0 0 1 0.9 0 0.1 1
8
 1 0 0 1 0.5 0 0.5 1
8
 1 0 0 1 0.9 0 0.1 1
8
 1 0 0 1 0.5 0 0.5 1
8
 1 0 0 1 0.9 0 0.1 1
8
 1 0 0 1 0.5 0 0.5 1
8
 1 0 0 1 0.4 0 0.6 1
8
 1 0 0 1 0.9 0 0.1 1
8
 1 0 0 1 0.9 0 0.1 1
8
 1 0 0 1 0.5 0 0.5 1
8
 1 0 0 1 0.5 0 0.5 1
8
 1 0 0 1 0.9 0 0.1 1
8
 1 0 0 1 0.5 0 0.5 1
8
 1 0 0 1 0.5 0 0.5 1
8
 1 0 0 1 0.9 0 0.1 1
8
 1 0 0 1 0.5 0 0.5 1
8
 1 0 0 1 0.5 0 0.5 1
8
 1 0 0 1 0.9 0 0.1 1
8
 1 0 0 1 0.9 0 0.1 1
8
 1 0 0 1 0.7 0 0.3 1
8
 1 0 0 1 0.9 0 0.1 1
8
 1 0 0 1 0.5 0 0.5 1
8
 1 0 0 1 0.9 0 0.1 1
8
 1 0 0 1 0.5 0 0.5 1
8
 1 0 0 1 0.7 0 0.3 1
8
 1 0 0 1 0.89 0 0.11 1
8
 1 0 0 1 0.9 0 0.1 1
8
 1 0 0 1 0.9 0 0.1 1
8
 1 0 0 1 0.9 0 0.1 1
8
 1 0 0 1 0.9 0 0.1 1
8
 1 0 0 1 0.9 0 0.1 1
8
 1 0 0 1 0.89 0 0.11 1
8
 1 0 0 1 0.5 0 0.5 1
8
 1 0 0 1 0.09 0 0.91 1
8
 1 0 0 1 0.5 0 0.5 1
2
 0.03 1
8
 1 0 0.5 0.5 0.3 0.7 0.15 0.85
8
 1 0 0 1 0.5 0 0.5 1
2
 0.03 1
8
 1 0 0 1 0 1 0 1
8
 1 0 0 1 0 0 1 1
8
 1 0 0 1 0 0 1 1
8
 1 0 0 1 0 0 1 1
8
 1 0 0 1 0 0 1 1
8
 1 0 0 1 0 0 1 1
8
 1 0 0 1 0 0 1 1
8
 1 0 0 1 0 0 1 1
8
 1 0 0 1 0 0 1 1
8
 1 0 0 1 0 0 1 1
8
 1 0 0 1 0 0 1 1
8
 1 0 0 1 0 0 1 1
8
 1 0 0 1 0 0 1 1
8
 1 0 0 1 0 0 1 1
8
 1 0 0 1 0 0 1 1
8
 1 0 0 1 0 0 1 1
8
 1 0 0 1 0 0 1 1
8
 1 0 0 1 0 0 1 1
8
 1 0 0 1 0 0 1 1
8
 1 0 0 1 0 0 1 1
8
 1 0 0 1 0 0 1 1
8
 1 0 0 1 0 0 1 1
8
 1 0 0 1 0 0 1 1
8
 1 0 0 1 0 0 1 1
8
 1 0 0 1 0 0 1 1
8
 1 0 0 1 0 0 1 1
8
 1 0 0 1 0 0 1 1
8
 1 0 0 1 0 0 1 1
8
 1 0 0 1 0 0 1 1
8
 1 0 0 1 0 0 1 1
8
 1 0 0 1 0 0 1 1
8
 1 0 0 1 0 0 1 1
8
 1 0 0 1 0 0 1 1
8
 1 0 0 1 0 0 1 1
8
 1 0 0 1 0 0 1 1
8
 1 0 0 1 0 0 1 1
8
 1 0 0 1 0 0 1 1
8
 1 0 0 1 0 0 1 1
8
 1 0 0 1 0 0 1 1
8
 1 0 0 1 0 0 1 1
8
 1 0 0 1 0 0 1 1
8
 1 0 0 1 0 0 1 1
8
 1 0 0 1 0 0 1 1
8
 1 0 0 1 0 0 1 1
8
 1 0 0 1 0 0 1 1
8
 1 0 0 1 0 0 1 1
8
 1 0 0 1 0 0 1 1
8
 1 0 0 1 0 0 1 1
8
 1 0 0 1 0 0 1 1
8
 1 0 0 1 0 0 1 1
8
 1 0 0 1 0 0 1 1
8
 1 0 0 1 0 0 1 1
8
 1 0 0 1 0 0 1 1
8
 1 0 0 1 0 0 1 1
8
 1 0 0 1 0 0 1 1
8
 1 0 0 1 0 0 1 1
8
 1 0 0 1 0 0 1 1
8
 1 0 0 1 0 0 1 1
8
 1 0 0 1 0 0 1 1
8
 1 0 0 1 0 0 1 1
8
 1 0 0 1 0 0 1 1
8
 1 0 0 1 0 0 1 1
2
 0.03 1
8
 1 0 0 1 0 1 0 1
8
 1 0 0 1 0 0 1 1
8
 1 0 0 1 0 0 1 1
8
 1 0 0 1 0 0 1 1
8
 1 0 0 1 0 0 1 1
8
 1 0 0 1 0 0 1 1
2
 0.03 1
8
 1 0 0 1 0.9 0.1 0 1
8
 1 0 0 1 0.2 0 0.8 1
8
 1 0 0 1 0.4 0 0.6 1
8
 1 0 0 1 0.5 0 0.5 1
8
 1 0 0 1 0 0 1 1
8
 1 0 0 1 0.9 0 0.1 1
8
 1 0 0 1 0.5 0 0.5 1
8
 1 0 0 1 0.89 0 0.11 1
8
 1 0 0 1 0.5 0 0.5 1
8
 1 0 0 1 0 0 1 1
8
 1 0 0 1 0.89 0 0.11 1
8
 1 0 0 1 0.5 0 0.5 1
8
 1 0 0 1 0.2 0 0.8 1
8
 1 0 0 1 0.4 0 0.6 1
8
 1 0 0 1 0.1 0 0.9 1
8
 1 0 0 1 0.5 0 0.5 1
8
 1 0 0 1 0.5 0 0.5 1
8
 1 0 0 1 0.1 0 0.9 1
8
 1 0 0 1 0 0 1 1
8
 1 0 0 1 0.5 0 0.5 1
8
 1 0 0 1 0.01 0 0.99 1
8
 1 0 0 1 0 0 1 1
8
 1 0 0 1 0 0 1 1
8
 1 0 0 1 0 0 1 1
8
 1 0 0 1 0.5 0 0.5 1
8
 1 0 0 1 0.9 0 0.1 1
8
 1 0 0 1 0.5 0 0.5 1
8
 1 0 0 1 0 0 1 1
8
 1 0 0 1 0.5 0 0.5 1
8
 1 0 0 1 0.9 0 0.1 1
8
 1 0 0 1 0.5 0 0.5 1
8
 1 0 0 1 0.1 0 0.9 1
8
 1 0 0 1 0 0 1 1
8
 1 0 0 1 0.1 0 0.9 1
8
 1 0 0 1 0.5 0 0.5 1
8
 1 0 0 1 0.9 0 0.1 1
8
 1 0 0 1 0.5 0 0.5 1
8
 1 0 0 1 0.5 0 0.5 1
8
 1 0 0 1 0.9 0 0.1 1
8
 1 0 0 1 0.09 0 0.91 1
8
 1 0 0 1 0.5 0 0.5 1
8
 1 0 0 1 0.1 0 0.9 1
8
 1 0 0 1 0.5 0 0.5 1
8
 1 0 0 1 0.5 0 0.5 1
8
 1 0 0 1 0.9 0 0.1 1
8
 1 0 0 1 0.09 0 0.91 1
8
 1 0 0 1 0.5 0 0.5 1
8
 1 0 0 1 0.5 0 0.5 1
8
 1 0 0 1 0 0 1 1
8
 1 0 0 1 0.5 0 0.5 1
8
 1 0 0 1 0 0 1 1
8
 1 0 0 1 0.5 0 0.5 1
8
 1 0 0 1 0.1 0 0.9 1
8
 1 0 0 1 0.5 0 0.5 1
8
 1 0 0 1 0.57 0 0.43 1
8
 1 0 0 1 0 0 1 1
8
 1 0 0 1 0 0 1 1
8
 1 0 0 1 0.5 0 0.5 1
8
 1 0 0 1 0.5 0 0.5 1
8
 1 0 0 1 0.9 0 0.1 1
8
 1 0 0 1 0 0 1 1
8
 1 0 0 1 0.5 0 0.5 1
8
 1 0 0 1 0.1 0 0.9 1
8
 1 0 0 1 0.5 0 0.5 1
8
 1 0 0 1 0.1 0 0.9 1
8
 1 0 0 1 0.5 0 0.5 1
8
 1 0 0 1 0.4 0 0.6 1
8
 1 0 0 1 0.5 0 0.5 1
8
 1 0 0 1 0 0 1 1
8
 1 0 0 1 0.5 0 0.5 1
8
 1 0 0 1 0.9 0 0.1 1
8
 1 0 0 1 0 0 1 1
8
 1 0 0 1 0.5 0 0.5 1
8
 1 0 0 1 0.89 0 0.11 1
8
 1 0 0 1 0.5 0 0.5 1
8
 1 0 0 1 0.5 0 0.5 1
8
 1 0 0 1 0.5 0 0.5 1
8
 1 0 0 1 0.4 0 0.6 1
8
 1 0 0 1 0.5 0 0.5 1
8
 1 0 0 1 0 0 1 1
8
 1 0 0 1 0 0 1 1
8
 1 0 0 1 0.1 0 0.9 1
8
 1 0 0 1 0.6 0 0.4 1
8
 1 0 0 1 0.5 0 0.5 1
8
 1 0 0 1 0.1 0 0.9 1
8
 1 0 0 1 0.4 0 0.6 1
8
 1 0 0 1 0.5 0 0.5 1
8
 1 0 0 1 0 0 1 1
8
 1 0 0 1 0 0 1 1
8
 1 0 0 1 0.1 0 0.9 1
8
 1 0 0 1 0.59 0 0.41 1
8
 1 0 0 1 0 0 1 1
8
 1 0 0 1 0.4 0 0.6 1
8
 1 0 0 1 0 0 1 1
8
 1 0 0 1 0.5 0 0.5 1
8
 1 0 0 1 0.9 0 0.1 1
8
 1 0 0 1 0.5 0 0.5 1
8
 1 0 0 1 0 0 1 1
8
 1 0 0 1 0 0 1 1
8
 1 0 0 1 0.9 0 0.1 1
8
 1 0 0 1 0.6 0 0.4 1
8
 1 0 0 1 0.4 0 0.6 1
8
 1 0 0 1 0.5 0 0.5 1
8
 1 0 0 1 0.1 0 0.9 1
8
 1 0 0 1 0.4 0 0.6 1
8
 1 0 0 1 0 0 1 1
8
 1 0 0 1 0.5 0 0.5 1
8
 1 0 0 1 0.09 0 0.91 1
8
 1 0 0 1 0 0 1 1
8
 1 0 0 1 0 0 1 1
8
 1 0 0 1 0.5 0 0.5 1
8
 1 0 0 1 0 0 1 1
8
 1 0 0 1 0 0 1 1
8
 1 0 0 1 0.89 0 0.11 1
8
 1 0 0 1 0 0 1 1
8
 1 0 0 1 0.5 0 0.5 1
8
 1 0 0 1 0.5 0 0.5 1
8
 1 0 0 1 0.5 0 0.5 1
8
 1 0 0 1 0.5 0 0.5 1
8
 1 0 0 1 0.5 0 0.5 1
8
 1 0 0 1 0.5 0 0.5 1
8
 1 0 0 1 0 0 1 1
8
 1 0 0 1 0.5 0 0.5 1
8
 1 0 0 1 0.4 0 0.6 1
8
 1 0 0 1 0.5 0 0.5 1
8
 1 0 0 1 0.7 0 0.3 1
8
 1 0 0 1 0.5 0 0.5 1
8
 1 0 0 1 0.89 0 0.11 1
8
 1 0 0 1 0.5 0 0.5 1
8
 1 0 0 1 0.9 0 0.1 1
8
 1 0 0 1 0 0 1 1
8
 1 0 0 1 0.9 0 0.1 1
8
 1 0 0 1 0.5 0 0.5 1
8
 1 0 0 1 0.5 0 0.5 1
8
 1 0 0 1 0 0 1 1
8
 1 0 0 1 0 0 1 1
8
 1 0 0 1 0.75 0 0.25 1
8
 1 0 0 1 0 0 1 1
8
 1 0 0 1 0.09 0 0.91 1
8
 1 0 0 1 0.5 0 0.5 1
8
 1 0 0 1 0.5 0 0.5 1
8
 1 0 0 1 0 0 1 1
8
 1 0 0 1 0.9 0 0.1 1
8
 1 0 0 1 0.7 0 0.3 1
8
 1 0 0 1 0.4 0 0.6 1
8
 1 0 0 1 0.5 0 0.5 1
8
 1 0 0 1 0.1 0 0.9 1
8
 1 0 0 1 0 0 1 1
8
 1 0 0 1 0.6 0 0.4 1
8
 1 0 0 1 0.5 0 0.5 1
8
 1 0 0 1 0.4 0 0.6 1
8
 1 0 0 1 0.9 0 0.1 1
8
 1 0 0 1 0.5 0 0.5 1
8
 1 0 0 1 0.9 0 0.1 1
8
 1 0 0 1 0 0 1 1
8
 1 0 0 1 0 0 1 1
8
 1 0 0 1 0 0 1 1
8
 1 0 0 1 0.4 0 0.6 1
8
 1 0 0 1 0 0 1 1
8
 1 0 0 1 0.09 0 0.91 1
8
 1 0 0 1 0 0 1 1
8
 1 0 0 1 0.9 0 0.1 1
8
 1 0 0 1 0.5 0 0.5 1
8
 1 0 0 1 0 0 1 1
8
 1 0 0 1 0 0 1 1
8
 1 0 0 1 0.9 0 0.1 1
8
 1 0 0 1 0.9 0 0.1 1
8
 1 0 0 1 0 0 1 1
8
 1 0 0 1 0.05 0 0.95 1
8
 1 0 0 1 0.5 0 0.5 1
8
 1 0 0 1 0.5 0 0.5 1
8
 1 0 0 1 0.5 0 0.5 1
8
 1 0 0 1 0 0 1 1
8
 1 0 0 1 0.5 0 0.5 1
8
 1 0 0 1 0 0 1 1
8
 1 0 0 1 0.1 0 0.9 1
8
 1 0 0 1 0 0 1 1
8
 1 0 0 1 0.5 0 0.5 1
8
 1 0 0 1 0 0 1 1
8
 1 0 0 1 0 0 1 1
8
 1 0 0 1 0.9 0 0.1 1
8
 1 0 0 1 0.01 0 0.99 1
2
 0.03 1
2
 0.9995 0.0005
2
 0.99995 5e-05
2
 0.999995 5e-06
2
 0.9999 0.0001
2
 1 8e-08
2
 1 9e-08
2
 0.999999 8.1e-07
2
 0.99999 1e-05
2
 0.99999 1e-05
2
 0.9998 0.0002
2
 0.99975 0.00025
2
 0.99999 1e-05
2
 0.999993 7e-06
2
 0.99995 5e-05
2
 0.99999 1e-05
2
 0.99995 5e-05
2
 1 4e-08
2
 0.99999 1e-05
2
 0.9999 0.0001
2
 0.99989 0.00011
2
 0.99975 0.00025
2
 0.9999 0.0001
2
 0.999999 1.4e-06
2
 1 1.4e-07
2
 0.9999 0.0001
2
 0.9999 0.0001
2
 0.9999 0.0001
2
 0.9999 0.0001
2
 0.999977 2.342e-05
2
 0.999999 1e-06
2
 0.99989 0.00011
2
 0.9985 0.0015
2
 0.9999 0.0001
2
 0.9999 0.0001
2
 0.9999 0.0001
2
 1 1e-08
2
 0.99998 2e-05
2
 0.999999 9.9e-07
2
 0.99999 1e-05
2
 0.9999 0.0001
2
 0.998 0.002
2
 0.99995 5e-05
2
 0.99992 8e-05
2
 0.99974 0.00026
2
 0.9999 0.0001
2
 0.999998 2e-06
2
 0.99988 0.00012
2
 0.9993 0.0007
2
 1 1.1e-07
2
 0.99989 0.00011
2
 0.99995 5e-05
2
 0.9999 0.0001
2
 0.999996 3.64e-06
2
 0.999964 3.587e-05
2
 0.99974 0.00026
2
 0.9999 0.0001
2
 0.99996 4e-05
2
 0.999999 1.448e-06
2
 0.999995 5.24e-06
2
 0.99981 0.00019
2
 0.9999 0.0001
2
 0.99998 2e-05
2
 0.99998 2e-05
2
 0.9999 0.0001
2
 1 1e-08
2
 0.9995 0.0005
2
 1 1.2e-07
2
 1 1.7e-07
2
 0.9999 0.0001
2
 1 1e-08
2
 0.9995 0.0005
2
 0.9999 0.0001
2
 0.9992 0.0008
2
 0.9999 0.0001
2
 1 1e-08
2
 0.999996 3.57e-06
2
 0.99992 8e-05
2
 0.9999 0.0001
2
 0.99999 1e-05
2
 0.99989 0.00011
2
 0.99991 9e-05
2
 0.9996 0.0004
2
 1 6e-08
2
 0.99996 4e-05
2
 0.9999 0.0001
2
 0.99995 5e-05
2
 0.9995 0.0005
2
 1 6e-08
2
 1 9e-08
2
 0.99999 1e-05
2
 0.999973 2.7e-05
2
 0.99995 5e-05
2
 0.99999 1e-05
2
 1 1e-08
2
 0.9999 0.0001
2
 0.9999 0.0001
2
 0.999999 6e-07
2
 1 2e-07
2
 0.99982 0.00018
2
 0.999999 1e-06
2
 0.9999 0.0001
2
 0.99995 5e-05
2
 0.9999 0.0001
2
 1 1e-08
2
 0.9999 0.0001
2
 0.9999 0.0001
2
 0.99985 0.00015
2
 1 2e-08
2
 0.99991 9e-05
2
 0.9996 0.0004
2
 0.99998 2e-05
2
 0.99999 1e-05
2
 0.9999 0.0001
2
 0.99986 0.00014
2
 0.9999 0.0001
2
 0.9998 0.0002
2
 0.9995 0.0005
2
 0.99999 1e-05
2
 0.99999 1e-05
2
 1 1e-08
2
 0.999997 2.88e-06
2
 0.9995 0.0005
2
 0.99922 0.00078
2
 0.99995 5e-05
2
 0.99995 5e-05
2
 0.9998 0.0002
2
 0.999999 6.9e-07
2
 0.99925 0.00075
2
 0.9991 0.0009
2
 0.99995 5e-05
2
 0.9998 0.0002
2
 0.9998 0.0002
2
 0.9999 0.0001
2
 0.9998 0.0002
2
 1 5e-07
2
 0.99996 4e-05
2
 0.9994 0.0006
2
 0.99999 1e-05
2
 0.9999 0.0001
2
 0.9999 0.0001
2
 0.9995 0.0005
2
 0.999999 1e-06
2
 0.99999 1e-05
2
 0.9999 0.0001
2
 0.9997 0.0003
2
 1 1e-08
2
 0.99984 0.00016
2
 0.9996 0.0004
2
 0.99993 7e-05
2
 0.99989 0.00011
2
 0.99997 3e-05
2
 0.9999 0.0001
2
 0.999 0.001
2
 0.99997 3e-05
2
 0.99991 9e-05
2
 1 3.6e-07
2
 0.996 0.004
2
 0.9999 0.0001
2
 0.999998 2e-06
2
 0.9999 0.0001
2
 0.99998 2e-05
2
 1 1e-08
2
 0.99995 5e-05
2
 0.99984 0.00016
2
 0.9965 0.0035
2
 0.9999 0.0001
2
 0.9928 0.0072
2
 0.9999 0.0001
2
 0.99996 4e-05
2
 0.99985 0.00015
2
 0.999999 6.6e-07
2
 0.9999 0.0001
2
 0.9999 0.0001
2
 0.9999 0.0001
2
 1 1.7e-07
2
 0.999977 2.291e-05
2
 0.9996 0.0004
2
 0.999999 1.2e-06
2
 0.999999 1e-06
2
 0.996 0.004
2
 0.99989 0.00011
2
 0.9998 0.0002
2
 0.999838 0.0001616
2
 0.9999 0.0001
2
 0.99995 5e-05
2
 1 1e-08
2
 0.999 0.001
2
 0.995 0.005
2
 0.9988 0.0012
2
 0.99995 5e-05
2
 0.999999 1e-06
2
 0.99998 2.003e-05
2
 0.9985 0.0015
2
 1 2.3e-07
2
 0.99987 0.00013
2
 0.9997 0.0003
2
 0.999999 6.2e-07
2
 0.9995 0.0005
2
 0.99995 5e-05
2
 0.99995 5e-05
2
 0.99999 1e-05
2
 1 1e-08
2
 0.99998 2e-05
2
 1 1.2e-07
2
 1 2.8e-07
2
 0.999991 8.59e-06
2
 0.999921 7.933e-05
2
 0.99985 0.00015
2
 1 1e-08
2
 0.9999 0.0001
2
 0.999999 1e-06
2
 0.99995 5e-05
2
 0.9991 0.0009
2
 0.9999 0.0001
2
 0.9997 0.0003
2
 0.999997 2.82e-06
2
 1 1e-08
2
 0.99998 2e-05
2
 0.99999 1e-05
2
 0.9999 0.0001
2
 0.9999 0.0001
2
 1 2e-08
2
 0.9995 0.0005
2
 0.999996 4e-06
2
 0.9999 0.0001
2
 0.999958 4.19e-05
2
 1 1.6e-07
2
 0.9999 0.0001
2
 0.9994 0.0006
2
 0.99962 0.00038
2
 0.9999 0.0001
2
 0.9999 0.0001
2
 0.9995 0.0005
2
 0.999907 9.332e-05
2
 0.999998 2e-06
2
 0.9999 0.0001
2
 1 1e-08
2
 0.9994 0.0006
2
 0.9999 0.0001
2
 0.99989 0.00011
2
 0.9999 0.0001
2
 0.999969 3.12e-05
2
 0.999999 5.4e-07
2
 0.999999 5.9e-07
2
 0.999999 1e-06
2
 0.999999 1e-06
2
 0.999 0.001
2
 0.999999 1e-06
2
 0.99995 5e-05
2
 0.999992 8e-06
2
 1 4e-08
2
 0.9999 0.0001
2
 0.99975 0.00025
2
 0.9999 0.0001
2
 0.99999 1e-05
2
 0.999982 1.82e-05
2
 0.9999 0.0001
2
 0.9999 0.0001
2
 1 1.1e-07
2
 0.999994 6.39e-06
2
 0.9995 0.0005
2
 0.99999 1e-05
2
 1 1.4e-07
2
 0.9998 0.0002
2
 0.999953 4.733e-05
2
 0.99999 1e-05
2
 0.99998 2e-05
2
 0.9999 0.0001
2
 0.9999 0.0001
2
 1 1e-08
2
 0.9999 0.0001
2
 0.999921 7.93e-05
2
 0.9995 0.0005
2
 0.9995 0.0005
2
 0.99994 6e-05
2
 1 1e-08
2
 0.9999 0.0001
2
 0.99991 9e-05
2
 0.99991 9e-05
2
 0.9999 0.0001
2
 0.99987 0.00013
2
 0.9999 0.0001
2
 1 1e-08
2
 0.9999 0.0001
2
 0.99995 5e-05
2
 0.999722 0.0002777
2
 1 9e-08
2
 1 1.1e-07
2
 0.99997 3e-05
2
 0.9985 0.0015
2
 0.9995 0.0005
2
 0.9995 0.0005
2
 1 2.9e-07
2
 0.99995 5e-05
2
 1 6e-08
2
 0.9997 0.0003
2
 0.999992 7.67e-06
2
 0.99994 6e-05
2
 0.999994 6e-06
2
 0.9999 0.0001
2
 0.9998 0.0002
2
 0.99989 0.00011
2
 0.9999 0.0001
2
 0.9999 0.0001
2
 0.999999 1e-06
2
 0.99997 3e-05
2
 0.99997 3e-05
2
 0.999555 0.00044466
2
 0.9999 0.0001
2
 1 1e-08
2
 0.999999 1e-06
2
 0.9999 0.0001
2
 0.999998 2.143e-06
2
 0.999999 1e-06
2
 1 5e-07
2
 1 1e-08
2
 0.9995 0.0005
2
 1 1e-08
2
 1 1e-08
2
 0.9999 0.0001
2
 0.9996 0.0004
2
 0.99995 5e-05
2
 0.999999 1e-06
2
 0.999 0.001
2
 0.9999 0.0001
2
 1 1e-08
2
 0.99875 0.00125
2
 0.9999 0.0001
2
 0.99997 3e-05
2
 0.99989 0.00011
2
 1 1e-07
2
 0.9999 0.0001
2
 0.99997 3e-05
2
 0.99999 1e-05
2
 0.9997 0.0003
2
 0.999999 1e-06
2
 0.9999 0.0001
2
 0.99996 4e-05
2
 0.99997 3e-05
2
 0.9999 0.0001
2
 0.999585 0.000415
2
 0.999991 9.42e-06
2
 0.999999 1e-06
2
 1 4e-08
2
 0.999974 2.595e-05
2
 0.99997 3e-05
2
 1 5e-08
2
 0.9998 0.0002
2
 0.99997 3e-05
2
 1 2.3e-07
2
 0.99998 2e-05
2
 0.9999 0.0001
2
 0.99998 2e-05
2
 0.9999 0.0001
2
 0.9999 0.0001
2
 0.99993 7e-05
2
 1 5e-07
1
 1

